TCS_Benchmarks/redos_fix/regexlib1_output_distinct_3756_3755_2_0.smt2
(set-logic QF_S)
(declare-const x String)
(assert (str.in.re x (re.inter (re.*  (re.union  (str.to.re "\u{3f}") (re.union  (str.to.re "\u{23}") (re.union  (str.to.re "\u{25}") (re.union  (str.to.re "\u{24}") (re.union  (str.to.re "\u{27}") (re.union (re.range "\u{41}" "\u{5a}") (re.union (re.range "\u{61}" "\u{7a}") (re.union  (str.to.re "\u{2b}") (re.union  (str.to.re "\u{2c}") (re.union  (str.to.re "\u{2d}") (re.union  (str.to.re "\u{2e}") (re.union (re.range "\u{30}" "\u{39}") (re.union  (str.to.re "\u{3d}") (re.union  (str.to.re "\u{7e}")  (str.to.re "\u{5f}"))))))))))))))) ) (re.comp  (re.union  (str.to.re "\u{2c}") (re.union  (str.to.re "\u{2e}") (re.union (re.union (re.range "\u{09}" "\u{0d}") (re.range "\u{20}" "\u{20}") (re.range "\u{85}" "\u{85}") (re.range "\u{a0}" "\u{a0}")) (re.union  (str.to.re "\u{28}")  (str.to.re "\u{29}")))))) )))
(check-sat)
(get-model)