TCS_Benchmarks/redos_fix/regexlib1_output_distinct_3756_3755_2_0.txt
[\?#%\$\'A-Za-z\+\,\-\.0-9=~_]*
[^\,\.\s\(\)]